qbf_easy_train/easy_2106_UNSAT.qdimacs
p cnf 21 49
a 1 10 0
e 2 3 4 5 6 7 8 9 11 12 13 14 15 16 17 18 19 20 21 0
1 2 -3 0
-1 -2 -3 0
1 -2 3 0
-1 2 3 0
-5 -6 -7 0
5 6 -7 0
-5 6 7 0
5 -6 7 0
8 4 0
8 -7 0
-4 7 -8 0
9 -2 0
9 8 0
2 -8 -9 0
-10 3 0
-10 -9 0
-3 9 10 0
11 -4 0
11 2 0
4 -2 -11 0
-13 11 0
-13 -12 0
-11 12 13 0
-14 10 0
-14 -13 0
-10 13 14 0
1 15 -16 0
-1 -15 -16 0
1 -15 16 0
-1 15 16 0
2 -16 -17 0
-2 16 -17 0
2 16 17 0
-2 -16 17 0
14 17 -18 0
-14 -17 -18 0
14 -17 18 0
-14 17 18 0
-20 -19 0
-20 11 0
19 -11 20 0
21 -18 0
21 -20 0
18 20 -21 0
-14 -5 -2 19 9 0
-2 -7 9 0
13 4 -18 11 -19 -5 -10 0
12 19 -15 18 16 0
21 0
