sat_easy_train/easy_2106_UNSAT.dimacs
p cnf 139 469
4 -2 0
4 -3 0
2 3 -4 0
5 1 0
5 -4 0
-1 4 -5 0
-7 -6 0
-7 -2 0
6 2 7 0
9 7 0
9 8 0
-7 -8 -9 0
-11 -9 0
-11 -10 0
9 10 11 0
3 -11 -12 0
-3 11 -12 0
3 11 12 0
-3 -11 12 0
-13 -5 0
-13 12 0
5 -12 13 0
-15 -3 0
-15 2 0
3 -2 15 0
6 -15 -16 0
-6 15 -16 0
6 15 16 0
-6 -15 16 0
17 -14 0
17 16 0
14 -16 -17 0
18 -19 -20 0
-18 19 -20 0
18 19 20 0
-18 -19 20 0
-17 -20 -21 0
17 20 -21 0
-17 20 21 0
17 -20 21 0
22 13 0
22 -21 0
-13 21 -22 0
10 18 -23 0
-10 -18 -23 0
10 -18 23 0
-10 18 23 0
-24 23 0
-24 4 0
-23 -4 24 0
24 -25 -26 0
-24 25 -26 0
24 25 26 0
-24 -25 26 0
-27 17 0
-27 9 0
-17 -9 27 0
28 1 0
28 27 0
-1 -27 -28 0
-26 28 -29 0
26 -28 -29 0
-26 -28 29 0
26 28 29 0
-31 8 0
-31 -6 0
-8 6 31 0
31 -32 0
-31 -32 0
-33 -30 0
-33 8 0
30 -8 33 0
-34 33 0
-34 8 0
-33 -8 34 0
35 34 0
35 14 0
-34 -14 -35 0
32 -35 -36 0
-32 35 -36 0
32 35 36 0
-32 -35 36 0
-37 30 0
-37 36 0
-30 -36 37 0
38 37 0
38 -9 0
-37 9 -38 0
-40 -36 0
-40 -39 0
36 39 40 0
41 -6 0
41 40 0
6 -40 -41 0
-43 -41 0
-43 42 0
41 -42 43 0
-44 -43 0
-44 7 0
43 -7 44 0
-38 -44 -45 0
38 44 -45 0
-38 44 45 0
38 -44 45 0
29 45 -46 0
-29 -45 -46 0
29 -45 46 0
-29 45 46 0
22 46 -47 0
-22 -46 -47 0
22 -46 47 0
-22 46 47 0
-48 -10 0
-48 25 0
10 -25 48 0
-49 48 0
-49 -48 0
-50 15 0
-50 -49 0
-15 49 50 0
-6 -50 -51 0
6 50 -51 0
-6 50 51 0
6 -50 51 0
52 -47 0
52 51 0
47 -51 -52 0
-54 25 0
-54 -53 0
-25 53 54 0
55 -50 0
55 -54 0
50 54 -55 0
-18 25 -56 0
18 -25 -56 0
-18 -25 56 0
18 25 56 0
-56 -57 -58 0
56 57 -58 0
-56 57 58 0
56 -57 58 0
59 -30 0
59 -4 0
30 4 -59 0
60 58 0
60 -59 0
-58 59 -60 0
61 55 0
61 60 0
-55 -60 -61 0
-23 -35 -63 0
23 35 -63 0
-23 35 63 0
23 -35 63 0
-62 63 -64 0
62 -63 -64 0
-62 -63 64 0
62 63 64 0
-65 42 0
-65 -36 0
-42 36 65 0
66 -33 0
66 65 0
33 -65 -66 0
64 66 -67 0
-64 -66 -67 0
64 -66 67 0
-64 66 67 0
68 -61 0
68 -67 0
61 67 -68 0
-69 2 0
-69 -32 0
-2 32 69 0
69 -24 -70 0
-69 24 -70 0
69 24 70 0
-69 -24 70 0
71 48 0
71 -70 0
-48 70 -71 0
-18 -53 -72 0
18 53 -72 0
-18 53 72 0
18 -53 72 0
-73 36 0
-73 -43 0
-36 43 73 0
74 -72 0
74 73 0
72 -73 -74 0
-72 34 -75 0
72 -34 -75 0
-72 -34 75 0
72 34 75 0
-76 -40 0
-76 3 0
40 -3 76 0
77 -76 0
77 -19 0
76 19 -77 0
78 75 0
78 -77 0
-75 77 -78 0
-79 74 0
-79 78 0
-74 -78 79 0
-80 43 0
-80 -25 0
-43 25 80 0
81 80 0
81 70 0
-80 -70 -81 0
-82 -79 0
-82 -81 0
79 81 82 0
-20 -25 -83 0
20 25 -83 0
-20 25 83 0
20 -25 83 0
84 83 0
84 -72 0
-83 72 -84 0
-84 -75 -85 0
84 75 -85 0
-84 75 85 0
84 -75 85 0
-86 10 0
-86 -33 0
-10 33 86 0
87 -85 0
87 86 0
85 -86 -87 0
88 -82 0
88 -87 0
82 87 -88 0
89 71 0
89 -88 0
-71 88 -89 0
-90 -24 0
-90 23 0
24 -23 90 0
-91 76 0
-91 -32 0
-76 32 91 0
-90 91 -92 0
90 -91 -92 0
-90 -91 92 0
90 91 92 0
-11 -36 -93 0
11 36 -93 0
-11 36 93 0
11 -36 93 0
-94 31 0
-94 -19 0
-31 19 94 0
-95 -93 0
-95 -94 0
93 94 95 0
95 17 -96 0
-95 -17 -96 0
95 -17 96 0
-95 17 96 0
97 43 0
97 -69 0
-43 69 -97 0
-96 -97 -98 0
96 97 -98 0
-96 97 98 0
96 -97 98 0
-32 14 -99 0
32 -14 -99 0
-32 -14 99 0
32 14 99 0
98 99 -100 0
-98 -99 -100 0
98 -99 100 0
-98 99 100 0
101 11 0
101 -10 0
-11 10 -101 0
101 35 -102 0
-101 -35 -102 0
101 -35 102 0
-101 35 102 0
103 34 0
103 -18 0
-34 18 -103 0
-104 77 0
-104 -30 0
-77 30 104 0
105 -24 0
105 83 0
24 -83 -105 0
104 105 -106 0
-104 -105 -106 0
104 -105 106 0
-104 105 106 0
103 106 -107 0
-103 -106 -107 0
103 -106 107 0
-103 106 107 0
48 57 -108 0
-48 -57 -108 0
48 -57 108 0
-48 57 108 0
-75 -108 -109 0
75 108 -109 0
-75 108 109 0
75 -108 109 0
110 -109 0
110 70 0
109 -70 -110 0
111 -8 0
111 53 0
8 -53 -111 0
-109 111 -112 0
109 -111 -112 0
-109 -111 112 0
109 111 112 0
-113 104 0
-113 -112 0
-104 112 113 0
114 23 0
114 -16 0
-23 16 -114 0
-115 114 0
-115 72 0
-114 -72 115 0
-116 -115 0
-116 -57 0
115 57 116 0
-117 -113 0
-117 116 0
113 -116 117 0
-118 -110 0
-118 -117 0
110 117 118 0
119 -107 0
119 118 0
107 -118 -119 0
102 -119 -120 0
-102 119 -120 0
102 119 120 0
-102 -119 120 0
-121 100 0
-121 -120 0
-100 120 121 0
122 92 0
122 121 0
-92 -121 -122 0
123 89 0
123 122 0
-89 -122 -123 0
124 -68 0
124 123 0
68 -123 -124 0
73 111 -125 0
-73 -111 -125 0
73 -111 125 0
-73 111 125 0
126 -125 0
126 53 0
125 -53 -126 0
-49 -6 -127 0
49 6 -127 0
-49 6 127 0
49 -6 127 0
-128 -126 0
-128 -127 0
126 127 128 0
129 14 0
129 33 0
-14 -33 -129 0
130 128 0
130 129 0
-128 -129 -130 0
6 -48 -131 0
-6 48 -131 0
6 48 131 0
-6 -48 131 0
132 -130 0
132 -131 0
130 131 -132 0
20 -8 -133 0
-20 8 -133 0
20 8 133 0
-20 -8 133 0
133 125 -134 0
-133 -125 -134 0
133 -125 134 0
-133 125 134 0
-135 85 0
-135 -48 0
-85 48 135 0
-136 -134 0
-136 -135 0
134 135 136 0
137 132 0
137 136 0
-132 -136 -137 0
-138 -124 0
-138 -137 0
124 137 138 0
139 52 0
139 -138 0
-52 138 -139 0
72 -46 -95 0
-139 56 -124 48 -33 114 0
-12 -9 -8 -58 0
-3 -17 122 0
-17 -127 -46 -21 62 112 0
68 25 0
-87 63 75 92 0
13 -128 0
-125 41 0
-111 -18 67 0
-61 -129 37 98 0
-131 -46 -102 -132 62 0
111 113 0
116 -9 0
74 -116 75 19 0
-130 9 0
137 -124 0
-17 -23 0
46 127 0
90 51 0
87 -91 14 -120 0
-120 101 0
-53 -31 0
-8 12 -21 0
29 102 110 -117 -85 50 0
8 -64 119 105 0
39 99 38 127 -87 -66 0
-54 88 137 120 0
-133 65 -91 0
-137 114 108 -29 46 0
-11 2 124 4 -1 0
17 33 -83 -66 127 0
58 4 0
-63 44 -91 -83 -14 0
95 16 -97 0
-108 85 -79 134 -97 0
5 -79 97 -126 95 -4 0
-28 -126 0
102 -32 0
-36 24 -85 -74 -95 0
7 -83 0
96 104 0
10 20 -76 0
-108 113 -44 82 0
32 -36 49 -84 106 0
-25 24 -102 -27 58 0
34 79 91 -137 -100 -105 0
-70 58 13 0
-15 74 0
126 124 -98 -67 116 0
-99 -4 114 0
-122 9 0
-69 -89 116 -43 90 0
-88 46 -86 0
-66 127 -45 0
-115 -113 3 -29 -56 43 0
48 -89 20 95 -79 -123 0
78 23 106 74 -12 77 0
-21 73 0
-58 61 8 -70 -112 0
-92 80 86 -8 -68 77 0
139 0
